% demand
num_movements = 26;
loading_factor = [1100, 1250, 1100, 1950, 1600, 1100, 950, 1450, 1950, 1400, 900, 1500, 1200, 1550, 1150, 1150, 1800, 1100, 1600, 1150, 1250, 1050, 1100, 1300, 850, 1550];
pickup_time = [0, 1, 1, 1, 1, 2, 2, 2, 3, 3, 5, 5, 5, 5, 5, 6, 6, 6, 6, 6, 9, 9, 9, 9, 9, 10];
delivery_time = [2, 2, 3, 2, 2, 4, 5, 5, 4, 4, 6, 6, 6, 6, 6, 7, 8, 8, 8, 11, 10, 11, 11, 11, 11, 11];

% transporter definition
total_capacity = 7000;
num_decks = 3;
capacity = [3000, 1000, 3000];

% ways out of decks
num_ways_out = 1;
paths_out = array3d(decks, ways_out, decks, [
% ways out of deck d1
2, 3, 0, 

% ways out of deck d2
3, 0, 0, 

% ways out of deck d3
0, 0, 0,	

]);

